9704
1188
1291
4316
9085
3111
7778
1891
5404
4338
8070
631
3792
1048
1382
8644
9082
1897
1679
1825
4614
3787
4776
1415
6056
5354
3458
2753
4875
3427
796
9378
2136
5282
7843
8287
1982
9047
7994
9488
9494
10188
7573
9555
5320
2898
6034
2574
3965
832
